Academic license - for non-commercial use only
Gurobi Optimizer version 9.0.3 build v9.0.3rc0 (mac64)
Optimize a model with 104216 rows, 100800 columns and 576950 nonzeros
Model fingerprint: 0xc14981c2
Variable types: 0 continuous, 100800 integer (100800 binary)
Coefficient statistics:
  Matrix range     [1e+00, 1e+00]
  Objective range  [1e+01, 3e+04]
  Bounds range     [1e+00, 1e+00]
  RHS range        [1e+00, 2e+02]
Presolve added 0 rows and 1450 columns
Presolve removed 50 rows and 0 columns
Presolve time: 1.61s
Presolved: 104166 rows, 102250 columns, 431350 nonzeros
Variable types: 0 continuous, 102250 integer (102250 binary)
Found heuristic solution: objective 437783.00000

Concurrent LP optimizer: dual simplex and barrier
Showing barrier log only...

Root barrier log...

Ordering time: 0.27s

Barrier statistics:
 Dense cols : 400
 AA' NZ     : 3.344e+05
 Factor NZ  : 1.300e+06 (roughly 100 MBytes of memory)
 Factor Ops : 3.284e+08 (less than 1 second per iteration)
 Threads    : 3

                  Objective                Residual
Iter       Primal          Dual         Primal    Dual     Compl     Time
   0   8.21473926e+07 -1.07024913e+08  3.36e+02 3.13e+01  8.82e+03     3s
   1   8.87031843e+05 -1.15959178e+08  1.88e+00 8.21e+01  4.29e+02     3s
   2   5.52755964e+05 -5.62580907e+07  4.68e-01 3.76e+01  1.95e+02     3s
   3   4.87170315e+05 -2.07879245e+07  1.80e-01 1.28e+01  7.16e+01     3s
   4   4.43484387e+05 -5.10771104e+05  1.60e-03 7.72e+00  3.14e+00     3s
   5   4.30759005e+05 -2.15520191e+04  9.06e-04 3.06e+00  1.49e+00     3s
   6   4.23380803e+05  1.99074232e+05  7.47e-04 1.19e+00  7.37e-01     4s
   7   4.15482980e+05  2.72026909e+05  5.84e-04 6.77e-01  4.71e-01     4s
   8   4.10260419e+05  3.00381071e+05  5.15e-04 4.71e-01  3.60e-01     4s
   9   4.06549937e+05  3.20102893e+05  4.68e-04 3.28e-01  2.83e-01     4s
  10   3.98707646e+05  3.36351948e+05  3.75e-04 2.07e-01  2.04e-01     4s
  11   3.92018645e+05  3.46897903e+05  2.98e-04 1.31e-01  1.48e-01     4s
  12   3.86435688e+05  3.52871661e+05  2.36e-04 8.85e-02  1.10e-01     4s
  13   3.81729591e+05  3.56738211e+05  1.82e-04 6.14e-02  8.17e-02     4s
  14   3.78997731e+05  3.59643743e+05  1.50e-04 4.19e-02  6.32e-02     4s
  15   3.75650737e+05  3.61081410e+05  1.11e-04 3.18e-02  4.76e-02     4s
  16   3.73964862e+05  3.62276633e+05  9.18e-05 2.38e-02  3.82e-02     5s
  17   3.72339133e+05  3.63057113e+05  7.31e-05 1.87e-02  3.03e-02     5s
  18   3.71278106e+05  3.63459623e+05  6.08e-05 1.61e-02  2.55e-02     5s
  19   3.70750344e+05  3.63788743e+05  5.46e-05 1.40e-02  2.27e-02     5s
  20   3.69721293e+05  3.64173491e+05  4.28e-05 1.15e-02  1.81e-02     5s
  21   3.69303240e+05  3.64469411e+05  3.81e-05 9.57e-03  1.58e-02     5s
  22   3.68671668e+05  3.64703750e+05  3.09e-05 8.17e-03  1.30e-02     5s
  23   3.68418465e+05  3.64933202e+05  2.81e-05 6.71e-03  1.14e-02     5s
  24   3.68222704e+05  3.64987167e+05  2.59e-05 6.37e-03  1.06e-02     5s
  25   3.67841042e+05  3.65190955e+05  2.17e-05 5.07e-03  8.66e-03     6s
  26   3.67673356e+05  3.65348420e+05  1.97e-05 4.09e-03  7.59e-03     6s
  27   3.67397674e+05  3.65428394e+05  1.65e-05 3.57e-03  6.43e-03     6s
  28   3.67247391e+05  3.65485963e+05  1.48e-05 3.21e-03  5.75e-03     6s
  29   3.67116049e+05  3.65550482e+05  1.32e-05 2.75e-03  5.11e-03     6s
  30   3.66998212e+05  3.65645761e+05  1.19e-05 2.18e-03  4.42e-03     6s
  31   3.66794826e+05  3.65674799e+05  9.52e-06 1.98e-03  3.66e-03     6s
  32   3.66700565e+05  3.65703387e+05  8.41e-06 1.81e-03  3.26e-03     6s
  33   3.66639665e+05  3.65769330e+05  7.66e-06 1.37e-03  2.84e-03     6s
  34   3.66580269e+05  3.65789703e+05  6.96e-06 1.21e-03  2.58e-03     6s
  35   3.66515530e+05  3.65810942e+05  6.25e-06 1.09e-03  2.30e-03     7s
  36   3.66448259e+05  3.65845375e+05  5.49e-06 8.76e-04  1.97e-03     7s
  37   3.66368045e+05  3.65864216e+05  4.53e-06 7.60e-04  1.64e-03     7s
  38   3.66304414e+05  3.65889057e+05  3.75e-06 6.01e-04  1.36e-03     7s
  39   3.66250332e+05  3.65901047e+05  3.12e-06 5.25e-04  1.14e-03     7s
  40   3.66209599e+05  3.65911911e+05  2.65e-06 4.60e-04  9.72e-04     7s
  41   3.66196039e+05  3.65926796e+05  2.50e-06 3.79e-04  8.79e-04     7s
  42   3.66151327e+05  3.65933328e+05  1.98e-06 3.38e-04  7.12e-04     7s
  43   3.66134943e+05  3.65943026e+05  1.79e-06 2.81e-04  6.26e-04     7s
  44   3.66113083e+05  3.65948820e+05  1.53e-06 2.42e-04  5.36e-04     7s
  45   3.66102788e+05  3.65952859e+05  1.40e-06 2.19e-04  4.89e-04     8s
  46   3.66087575e+05  3.65957912e+05  1.21e-06 1.90e-04  4.23e-04     8s
  47   3.66076589e+05  3.65960219e+05  1.08e-06 1.76e-04  3.80e-04     8s
  48   3.66069709e+05  3.65967689e+05  9.90e-07 1.33e-04  3.33e-04     8s
  49   3.66048667e+05  3.65971906e+05  7.36e-07 1.07e-04  2.50e-04     8s
  50   3.66035120e+05  3.65975021e+05  5.69e-07 8.79e-05  1.96e-04     8s
  51   3.66028373e+05  3.65978279e+05  4.87e-07 6.90e-05  1.63e-04     8s
  52   3.66023682e+05  3.65981045e+05  4.28e-07 5.38e-05  1.39e-04     8s
  53   3.66018182e+05  3.65982349e+05  3.61e-07 4.58e-05  1.17e-04     8s
  54   3.66010848e+05  3.65983710e+05  2.67e-07 3.76e-05  8.86e-05     9s
  55   3.66007283e+05  3.65984751e+05  2.21e-07 3.19e-05  7.35e-05     9s
  56   3.66004944e+05  3.65985804e+05  1.90e-07 2.60e-05  6.25e-05     9s
  57   3.66002008e+05  3.65986045e+05  1.53e-07 2.45e-05  5.21e-05     9s
  58   3.65999497e+05  3.65987034e+05  1.19e-07 1.87e-05  4.07e-05     9s
  59   3.65997379e+05  3.65987939e+05  9.23e-08 1.37e-05  3.08e-05     9s
  60   3.65995936e+05  3.65988196e+05  7.28e-08 1.22e-05  2.53e-05     9s
  61   3.65995292e+05  3.65988870e+05  6.47e-08 8.51e-06  2.10e-05     9s
  62   3.65994237e+05  3.65989129e+05  5.10e-08 7.00e-06  1.67e-05     9s
  63   3.65993310e+05  3.65989390e+05  4.07e-08 5.59e-06  1.28e-05    10s
  64   3.65992659e+05  3.65989883e+05  3.17e-08 2.85e-06  9.05e-06    10s
  65   3.65991387e+05  3.65990094e+05  1.72e-08 1.67e-06  4.22e-06    10s
  66   3.65991008e+05  3.65990163e+05  1.06e-08 1.28e-06  2.76e-06    10s
  67   3.65990915e+05  3.65990280e+05  9.28e-09 6.77e-07  2.07e-06    10s
  68   3.65990771e+05  3.65990313e+05  6.66e-09 4.83e-07  1.49e-06    10s
  69   3.65990741e+05  3.65990336e+05  6.13e-09 3.65e-07  1.32e-06    10s
  70   3.65990569e+05  3.65990355e+05  2.80e-09 2.75e-07  7.00e-07    10s
  71   3.65990539e+05  3.65990379e+05  2.27e-09 1.62e-07  5.24e-07    10s
  72   3.65990471e+05  3.65990407e+05  1.05e-09 1.30e-07  2.10e-07    10s
  73   3.65990416e+05  3.65990409e+05  2.39e-08 6.77e-08  2.43e-08    11s
  74   3.65990416e+05  3.65990409e+05  2.39e-08 6.76e-08  2.43e-08    11s
  75   3.65990416e+05  3.65990409e+05  2.39e-08 6.76e-08  2.43e-08    11s
  76   3.65990416e+05  3.65990409e+05  2.39e-08 6.43e-08  2.43e-08    11s

Barrier solved model in 76 iterations and 10.98 seconds
Optimal objective 3.65990416e+05


Root crossover log...

   57168 DPushes remaining with DInf 3.5501065e-01                11s
       0 DPushes remaining with DInf 0.0000000e+00                11s

     460 PPushes remaining with PInf 1.1968205e-05                11s
       0 PPushes remaining with PInf 0.0000000e+00                11s

  Push phase complete: Pinf 0.0000000e+00, Dinf 1.4042799e-01     11s


Root simplex log...

Iteration    Objective       Primal Inf.    Dual Inf.      Time
    9825    3.6599041e+05   0.000000e+00   1.404280e-01     11s
    9829    3.6599041e+05   0.000000e+00   0.000000e+00     11s

Solved with barrier

Root relaxation: objective 3.659904e+05, 9829 iterations, 9.22 seconds

    Nodes    |    Current Node    |     Objective Bounds      |     Work
 Expl Unexpl |  Obj  Depth IntInf | Incumbent    BestBd   Gap | It/Node Time

     0     0 365990.412    0 4859 437783.000 365990.412  16.4%     -   12s
H    0     0                    371390.00000 365990.412  1.45%     -   13s
H    0     0                    371150.00000 365990.412  1.39%     -   24s
     0     0 365997.188    0 5066 371150.000 365997.188  1.39%     -   33s
     0     0 365997.254    0 5075 371150.000 365997.254  1.39%     -   35s
     0     0 366006.428    0 5293 371150.000 366006.428  1.39%     -   44s
     0     0 366006.931    0 5294 371150.000 366006.931  1.39%     -   46s
     0     0 366013.537    0 5431 371150.000 366013.537  1.38%     -   56s
     0     0 366016.194    0 5430 371150.000 366016.194  1.38%     -   58s
     0     0 366016.352    0 5432 371150.000 366016.352  1.38%     -   58s
     0     0 366016.352    0 5432 371150.000 366016.352  1.38%     -   59s
     0     0 366021.570    0 5436 371150.000 366021.570  1.38%     -   63s
     0     0 366022.647    0 5496 371150.000 366022.647  1.38%     -   65s
     0     0 366022.647    0 5497 371150.000 366022.647  1.38%     -   65s
     0     0 366028.987    0 5780 371150.000 366028.987  1.38%     -   71s
     0     0 366031.546    0 5758 371150.000 366031.546  1.38%     -   73s
     0     0 366031.721    0 5763 371150.000 366031.721  1.38%     -   73s
     0     0 366031.773    0 5771 371150.000 366031.773  1.38%     -   73s
     0     0 366031.774    0 5771 371150.000 366031.774  1.38%     -   74s
     0     0 366035.590    0 5820 371150.000 366035.590  1.38%     -   77s
     0     0 366036.188    0 5909 371150.000 366036.188  1.38%     -   80s
     0     0 366036.201    0 5828 371150.000 366036.201  1.38%     -   80s
     0     0 366040.649    0 5877 371150.000 366040.649  1.38%     -   83s
     0     0 366040.948    0 5911 371150.000 366040.948  1.38%     -   85s
     0     0 366041.017    0 5887 371150.000 366041.017  1.38%     -   85s
     0     0 366041.024    0 5887 371150.000 366041.024  1.38%     -   85s
     0     0 366043.620    0 6019 371150.000 366043.620  1.38%     -   89s
     0     0 366044.199    0 6007 371150.000 366044.199  1.38%     -   90s
     0     0 366044.221    0 6005 371150.000 366044.221  1.38%     -   90s
     0     0 366048.543    0 5747 371150.000 366048.543  1.37%     -   94s
H    0     0                    370739.00000 366048.543  1.27%     -  152s
     0     0 366048.849    0 5556 370739.000 366048.849  1.27%     -  153s
     0     0 366048.886    0 5556 370739.000 366048.886  1.27%     -  153s
     0     0 366053.189    0 5879 370739.000 366053.189  1.26%     -  157s
     0     0 366053.534    0 6074 370739.000 366053.534  1.26%     -  158s
     0     0 366053.567    0 6077 370739.000 366053.567  1.26%     -  159s
     0     0 366055.622    0 5365 370739.000 366055.622  1.26%     -  162s
     0     0 366056.457    0 5537 370739.000 366056.457  1.26%     -  164s
     0     0 366056.480    0 5364 370739.000 366056.480  1.26%     -  164s
     0     0 366061.817    0 6018 370739.000 366061.817  1.26%     -  168s
     0     0 366062.557    0 6028 370739.000 366062.557  1.26%     -  170s
     0     0 366062.637    0 5909 370739.000 366062.637  1.26%     -  170s
     0     0 366062.639    0 6027 370739.000 366062.639  1.26%     -  170s
     0     0 366065.733    0 6040 370739.000 366065.733  1.26%     -  174s
     0     0 366066.386    0 5843 370739.000 366066.386  1.26%     -  175s
     0     0 366066.522    0 5633 370739.000 366066.522  1.26%     -  176s
     0     0 366066.529    0 5632 370739.000 366066.529  1.26%     -  176s
     0     0 366069.225    0 6046 370739.000 366069.225  1.26%     -  180s
     0     0 366069.316    0 5944 370739.000 366069.316  1.26%     -  181s
     0     0 366069.345    0 6057 370739.000 366069.345  1.26%     -  181s
     0     0 366071.381    0 5866 370739.000 366071.381  1.26%     -  185s
     0     0 366071.652    0 5861 370739.000 366071.652  1.26%     -  186s
     0     0 366071.742    0 5857 370739.000 366071.742  1.26%     -  186s
     0     0 366071.759    0 5854 370739.000 366071.759  1.26%     -  187s
     0     0 366072.599    0 5908 370739.000 366072.599  1.26%     -  190s
     0     0 366072.766    0 5916 370739.000 366072.766  1.26%     -  191s
     0     0 366072.795    0 5917 370739.000 366072.795  1.26%     -  191s
     0     0 366073.907    0 6050 370739.000 366073.907  1.26%     -  194s
     0     0 366073.907    0 6024 370739.000 366073.907  1.26%     -  203s
     0     2 366079.907    0 6022 370739.000 366079.907  1.26%     -  238s
     1     4 366098.941    1 4986 370739.000 366079.907  1.26%  4899  279s
     3     7 366747.522    2 2562 370739.000 366098.944  1.25%  9252  300s

Cutting planes:
  Zero half: 171

Explored 6 nodes (67482 simplex iterations) in 300.08 seconds
Thread count was 8 (of 8 available processors)

Solution count 4: 370739 371150 371390 437783 

Time limit reached
Best objective 3.707390000000e+05, best bound 3.660990000000e+05, gap 1.2516%

User-callback calls 62520, time in user-callback 0.37 sec
Solution written to /Users/mdeboute/Desktop/Etudes/Master/M2/S9/GOPP/Projet/multi-period-flp/solution/instMulti_I50_J250_T8_0_result.txt
